nN = 8;
nR = 40;
nH = 2;

a = [[25, 18, 19, 21, 21, 18, 22, 19, 18, 25, 17, 18, 22, 25, 24, 22, 16, 17, 24, 19, 19, 23, 15, 15, 25, 21, 16, 22, 16, 15, 19, 18, 22, 20, 21, 17, 15, 21, 19, 24], [16, 21, 25, 22, 19, 25, 24, 16, 15, 25, 20, 25, 17, 25, 24, 17, 22, 22, 24, 22, 24, 24, 16, 24, 25, 21, 24, 21, 23, 16, 16, 16, 25, 24, 20, 22, 23, 19, 19, 22], [23, 19, 18, 24, 16, 23, 18, 21, 22, 22, 24, 19, 24, 23, 21, 24, 15, 17, 15, 16, 20, 19, 25, 22, 23, 21, 24, 21, 16, 18, 22, 22, 17, 22, 24, 24, 18, 19, 17, 25], [24, 19, 23, 24, 24, 25, 21, 23, 22, 23, 16, 25, 23, 15, 24, 21, 15, 17, 23, 23, 16, 21, 21, 22, 18, 22, 19, 21, 16, 16, 15, 24, 16, 21, 25, 25, 15, 22, 25, 19], [17, 25, 18, 20, 23, 19, 25, 23, 17, 24, 19, 16, 25, 15, 24, 25, 20, 19, 22, 21, 22, 21, 25, 17, 15, 24, 23, 23, 16, 21, 25, 19, 16, 24, 19, 24, 20, 22, 23, 25], [22, 20, 17, 20, 17, 17, 21, 21, 23, 15, 21, 25, 21, 22, 16, 22, 20, 15, 19, 15, 23, 25, 15, 23, 24, 15, 19, 15, 16, 15, 25, 22, 16, 21, 23, 20, 24, 18, 18, 18], [25, 23, 15, 20, 18, 15, 17, 25, 20, 25, 24, 17, 18, 18, 23, 16, 18, 21, 23, 24, 15, 16, 19, 23, 19, 23, 25, 20, 20, 21, 18, 25, 25, 23, 19, 18, 17, 25, 24, 15], [18, 15, 16, 18, 18, 25, 23, 17, 23, 19, 25, 19, 19, 22, 25, 19, 19, 25, 18, 21, 16, 16, 25, 25, 19, 15, 15, 20, 18, 19, 16, 16, 18, 21, 25, 18, 17, 24, 24, 22]];
c = [[[0, 0, 0, 0, 0, 0, 0, 0, 0, 0, 0, 0, 0, 0, 0, 0, 0, 0, 0, 0, 0, 0, 0, 0, 0, 0, 0, 0, 0, 0, 0, 0, 0, 0, 0, 0, 0, 0, 0, 0], [35, 30, 31, 41, 50, 38, 48, 35, 46, 32, 40, 43, 33, 42, 31, 37, 30, 45, 41, 50, 44, 39, 47, 41, 41, 49, 35, 46, 47, 37, 49, 40, 38, 31, 50, 48, 46, 31, 44, 45], [36, 44, 32, 35, 40, 33, 50, 47, 43, 30, 50, 47, 34, 36, 31, 39, 32, 48, 50, 48, 31, 36, 46, 48, 36, 44, 43, 39, 43, 45, 41, 49, 40, 34, 48, 41, 45, 42, 34, 43], [39, 50, 48, 32, 34, 41, 43, 38, 49, 32, 44, 38, 42, 47, 49, 42, 50, 43, 49, 33, 48, 46, 50, 36, 33, 49, 32, 32, 42, 47, 44, 46, 38, 30, 46, 42, 38, 48, 48, 45], [44, 49, 48, 30, 30, 35, 44, 32, 48, 50, 35, 45, 41, 45, 35, 43, 49, 32, 48, 49, 31, 34, 31, 40, 42, 37, 37, 39, 37, 35, 45, 30, 33, 31, 47, 32, 38, 41, 46, 33], [40, 33, 50, 38, 43, 48, 40, 49, 38, 43, 44, 49, 33, 39, 47, 39, 32, 30, 39, 45, 49, 40, 32, 32, 50, 36, 35, 46, 45, 43, 42, 35, 38, 47, 41, 40, 38, 36, 39, 43], [46, 49, 48, 44, 46, 32, 41, 46, 39, 47, 40, 36, 35, 47, 32, 40, 44, 38, 44, 42, 41, 33, 34, 40, 46, 34, 49, 47, 49, 43, 48, 40, 43, 40, 37, 43, 50, 35, 41, 44], [44, 38, 32, 46, 46, 48, 46, 49, 46, 39, 34, 34, 30, 34, 48, 43, 50, 45, 42, 46, 47, 34, 49, 37, 42, 45, 36, 50, 47, 44, 49, 33, 45, 32, 42, 47, 34, 32, 44, 50]], [[0, 0, 0, 0, 0, 0, 0, 0, 0, 0, 0, 0, 0, 0, 0, 0, 0, 0, 0, 0, 0, 0, 0, 0, 0, 0, 0, 0, 0, 0, 0, 0, 0, 0, 0, 0, 0, 0, 0, 0], [0, 0, 0, 0, 0, 0, 0, 0, 0, 0, 0, 0, 0, 0, 0, 0, 0, 0, 0, 0, 0, 0, 0, 0, 0, 0, 0, 0, 0, 0, 0, 0, 0, 0, 0, 0, 0, 0, 0, 0], [50, 30, 48, 40, 50, 49, 50, 50, 48, 41, 42, 37, 35, 38, 34, 46, 31, 44, 40, 38, 48, 49, 49, 32, 41, 38, 48, 39, 31, 43, 31, 49, 32, 37, 44, 37, 31, 40, 32, 35], [48, 31, 34, 32, 43, 50, 50, 38, 36, 45, 46, 38, 48, 31, 44, 50, 36, 45, 44, 42, 40, 30, 40, 40, 34, 47, 49, 38, 35, 45, 44, 31, 42, 48, 49, 34, 49, 37, 40, 35], [42, 30, 42, 44, 38, 46, 35, 35, 39, 33, 46, 35, 36, 42, 30, 34, 30, 36, 30, 44, 39, 47, 37, 46, 41, 30, 47, 35, 50, 31, 30, 45, 45, 50, 46, 43, 49, 42, 43, 31], [37, 44, 38, 30, 40, 43, 39, 42, 43, 30, 34, 34, 30, 45, 45, 31, 36, 44, 35, 45, 30, 48, 41, 37, 39, 42, 50, 35, 41, 31, 37, 45, 38, 43, 40, 49, 35, 32, 50, 43], [30, 45, 37, 33, 47, 31, 34, 41, 36, 48, 39, 41, 32, 34, 49, 30, 44, 45, 41, 37, 44, 45, 34, 34, 50, 41, 49, 44, 36, 41, 43, 46, 38, 40, 47, 31, 31, 40, 48, 43], [44, 39, 35, 30, 45, 42, 38, 30, 40, 48, 37, 42, 45, 35, 34, 35, 44, 36, 50, 36, 33, 42, 32, 34, 32, 46, 35, 42, 43, 30, 46, 39, 34, 45, 36, 38, 32, 50, 47, 49]], [[0, 0, 0, 0, 0, 0, 0, 0, 0, 0, 0, 0, 0, 0, 0, 0, 0, 0, 0, 0, 0, 0, 0, 0, 0, 0, 0, 0, 0, 0, 0, 0, 0, 0, 0, 0, 0, 0, 0, 0], [0, 0, 0, 0, 0, 0, 0, 0, 0, 0, 0, 0, 0, 0, 0, 0, 0, 0, 0, 0, 0, 0, 0, 0, 0, 0, 0, 0, 0, 0, 0, 0, 0, 0, 0, 0, 0, 0, 0, 0], [0, 0, 0, 0, 0, 0, 0, 0, 0, 0, 0, 0, 0, 0, 0, 0, 0, 0, 0, 0, 0, 0, 0, 0, 0, 0, 0, 0, 0, 0, 0, 0, 0, 0, 0, 0, 0, 0, 0, 0], [30, 44, 32, 48, 31, 49, 36, 43, 50, 36, 50, 42, 36, 48, 39, 47, 31, 44, 46, 39, 45, 47, 35, 49, 35, 30, 33, 42, 47, 37, 44, 43, 31, 33, 34, 36, 34, 35, 38, 43], [46, 34, 34, 42, 43, 46, 38, 32, 30, 46, 43, 45, 40, 40, 30, 47, 50, 47, 46, 36, 31, 47, 49, 43, 41, 44, 30, 36, 30, 37, 49, 30, 35, 37, 48, 32, 37, 30, 45, 49], [37, 38, 49, 39, 44, 50, 34, 37, 36, 31, 42, 43, 43, 44, 46, 35, 36, 30, 43, 39, 48, 39, 49, 31, 47, 48, 41, 33, 36, 38, 41, 34, 35, 35, 45, 48, 32, 44, 30, 31], [49, 34, 41, 32, 46, 35, 40, 45, 38, 47, 38, 48, 47, 36, 42, 30, 36, 50, 48, 50, 43, 34, 40, 44, 36, 49, 40, 42, 36, 47, 36, 38, 40, 33, 43, 37, 35, 30, 38, 45], [47, 46, 37, 38, 34, 39, 48, 34, 49, 44, 44, 42, 37, 35, 40, 33, 46, 46, 39, 50, 30, 42, 47, 49, 44, 42, 44, 32, 42, 32, 41, 42, 36, 40, 44, 30, 34, 50, 32, 36]], [[0, 0, 0, 0, 0, 0, 0, 0, 0, 0, 0, 0, 0, 0, 0, 0, 0, 0, 0, 0, 0, 0, 0, 0, 0, 0, 0, 0, 0, 0, 0, 0, 0, 0, 0, 0, 0, 0, 0, 0], [0, 0, 0, 0, 0, 0, 0, 0, 0, 0, 0, 0, 0, 0, 0, 0, 0, 0, 0, 0, 0, 0, 0, 0, 0, 0, 0, 0, 0, 0, 0, 0, 0, 0, 0, 0, 0, 0, 0, 0], [0, 0, 0, 0, 0, 0, 0, 0, 0, 0, 0, 0, 0, 0, 0, 0, 0, 0, 0, 0, 0, 0, 0, 0, 0, 0, 0, 0, 0, 0, 0, 0, 0, 0, 0, 0, 0, 0, 0, 0], [0, 0, 0, 0, 0, 0, 0, 0, 0, 0, 0, 0, 0, 0, 0, 0, 0, 0, 0, 0, 0, 0, 0, 0, 0, 0, 0, 0, 0, 0, 0, 0, 0, 0, 0, 0, 0, 0, 0, 0], [32, 35, 48, 39, 41, 40, 46, 49, 43, 36, 44, 46, 39, 43, 40, 35, 37, 46, 39, 33, 41, 42, 50, 47, 41, 31, 49, 44, 46, 30, 30, 39, 48, 35, 33, 30, 33, 40, 41, 34], [40, 42, 34, 45, 34, 50, 34, 49, 45, 47, 39, 33, 37, 32, 32, 40, 45, 48, 31, 50, 41, 39, 45, 36, 45, 31, 47, 48, 34, 33, 35, 46, 45, 42, 36, 42, 47, 44, 39, 37], [44, 46, 36, 38, 34, 44, 44, 35, 33, 46, 40, 50, 43, 43, 43, 45, 30, 34, 40, 35, 44, 49, 49, 43, 35, 43, 31, 47, 38, 30, 38, 48, 43, 40, 35, 31, 44, 31, 37, 46], [38, 30, 41, 37, 33, 39, 37, 43, 45, 38, 39, 50, 46, 44, 39, 41, 48, 44, 31, 45, 41, 38, 31, 44, 32, 39, 45, 40, 36, 30, 31, 44, 35, 36, 45, 35, 38, 36, 40, 31]], [[0, 0, 0, 0, 0, 0, 0, 0, 0, 0, 0, 0, 0, 0, 0, 0, 0, 0, 0, 0, 0, 0, 0, 0, 0, 0, 0, 0, 0, 0, 0, 0, 0, 0, 0, 0, 0, 0, 0, 0], [0, 0, 0, 0, 0, 0, 0, 0, 0, 0, 0, 0, 0, 0, 0, 0, 0, 0, 0, 0, 0, 0, 0, 0, 0, 0, 0, 0, 0, 0, 0, 0, 0, 0, 0, 0, 0, 0, 0, 0], [0, 0, 0, 0, 0, 0, 0, 0, 0, 0, 0, 0, 0, 0, 0, 0, 0, 0, 0, 0, 0, 0, 0, 0, 0, 0, 0, 0, 0, 0, 0, 0, 0, 0, 0, 0, 0, 0, 0, 0], [0, 0, 0, 0, 0, 0, 0, 0, 0, 0, 0, 0, 0, 0, 0, 0, 0, 0, 0, 0, 0, 0, 0, 0, 0, 0, 0, 0, 0, 0, 0, 0, 0, 0, 0, 0, 0, 0, 0, 0], [0, 0, 0, 0, 0, 0, 0, 0, 0, 0, 0, 0, 0, 0, 0, 0, 0, 0, 0, 0, 0, 0, 0, 0, 0, 0, 0, 0, 0, 0, 0, 0, 0, 0, 0, 0, 0, 0, 0, 0], [43, 39, 30, 46, 35, 40, 50, 42, 36, 46, 47, 50, 38, 44, 41, 47, 47, 43, 45, 47, 48, 44, 38, 36, 39, 35, 31, 48, 43, 30, 37, 37, 38, 31, 46, 33, 31, 42, 30, 49], [44, 31, 33, 47, 35, 47, 41, 45, 40, 44, 30, 39, 48, 40, 40, 43, 42, 41, 47, 47, 45, 46, 44, 34, 43, 50, 39, 40, 32, 49, 35, 38, 47, 41, 34, 44, 30, 35, 45, 46], [41, 40, 50, 49, 31, 32, 37, 43, 43, 49, 48, 44, 37, 49, 35, 41, 34, 49, 45, 47, 44, 43, 49, 49, 34, 36, 48, 44, 40, 31, 43, 30, 43, 36, 50, 38, 34, 37, 42, 33]], [[0, 0, 0, 0, 0, 0, 0, 0, 0, 0, 0, 0, 0, 0, 0, 0, 0, 0, 0, 0, 0, 0, 0, 0, 0, 0, 0, 0, 0, 0, 0, 0, 0, 0, 0, 0, 0, 0, 0, 0], [0, 0, 0, 0, 0, 0, 0, 0, 0, 0, 0, 0, 0, 0, 0, 0, 0, 0, 0, 0, 0, 0, 0, 0, 0, 0, 0, 0, 0, 0, 0, 0, 0, 0, 0, 0, 0, 0, 0, 0], [0, 0, 0, 0, 0, 0, 0, 0, 0, 0, 0, 0, 0, 0, 0, 0, 0, 0, 0, 0, 0, 0, 0, 0, 0, 0, 0, 0, 0, 0, 0, 0, 0, 0, 0, 0, 0, 0, 0, 0], [0, 0, 0, 0, 0, 0, 0, 0, 0, 0, 0, 0, 0, 0, 0, 0, 0, 0, 0, 0, 0, 0, 0, 0, 0, 0, 0, 0, 0, 0, 0, 0, 0, 0, 0, 0, 0, 0, 0, 0], [0, 0, 0, 0, 0, 0, 0, 0, 0, 0, 0, 0, 0, 0, 0, 0, 0, 0, 0, 0, 0, 0, 0, 0, 0, 0, 0, 0, 0, 0, 0, 0, 0, 0, 0, 0, 0, 0, 0, 0], [0, 0, 0, 0, 0, 0, 0, 0, 0, 0, 0, 0, 0, 0, 0, 0, 0, 0, 0, 0, 0, 0, 0, 0, 0, 0, 0, 0, 0, 0, 0, 0, 0, 0, 0, 0, 0, 0, 0, 0], [39, 43, 46, 36, 48, 34, 31, 35, 30, 45, 41, 33, 36, 36, 40, 35, 48, 48, 43, 31, 37, 38, 41, 33, 35, 33, 45, 32, 36, 42, 49, 44, 45, 46, 50, 44, 45, 34, 45, 36], [50, 44, 47, 40, 50, 34, 33, 32, 41, 48, 32, 42, 33, 46, 30, 48, 50, 34, 48, 48, 32, 45, 34, 43, 41, 47, 48, 34, 31, 44, 32, 40, 46, 47, 34, 45, 32, 42, 38, 40]], [[0, 0, 0, 0, 0, 0, 0, 0, 0, 0, 0, 0, 0, 0, 0, 0, 0, 0, 0, 0, 0, 0, 0, 0, 0, 0, 0, 0, 0, 0, 0, 0, 0, 0, 0, 0, 0, 0, 0, 0], [0, 0, 0, 0, 0, 0, 0, 0, 0, 0, 0, 0, 0, 0, 0, 0, 0, 0, 0, 0, 0, 0, 0, 0, 0, 0, 0, 0, 0, 0, 0, 0, 0, 0, 0, 0, 0, 0, 0, 0], [0, 0, 0, 0, 0, 0, 0, 0, 0, 0, 0, 0, 0, 0, 0, 0, 0, 0, 0, 0, 0, 0, 0, 0, 0, 0, 0, 0, 0, 0, 0, 0, 0, 0, 0, 0, 0, 0, 0, 0], [0, 0, 0, 0, 0, 0, 0, 0, 0, 0, 0, 0, 0, 0, 0, 0, 0, 0, 0, 0, 0, 0, 0, 0, 0, 0, 0, 0, 0, 0, 0, 0, 0, 0, 0, 0, 0, 0, 0, 0], [0, 0, 0, 0, 0, 0, 0, 0, 0, 0, 0, 0, 0, 0, 0, 0, 0, 0, 0, 0, 0, 0, 0, 0, 0, 0, 0, 0, 0, 0, 0, 0, 0, 0, 0, 0, 0, 0, 0, 0], [0, 0, 0, 0, 0, 0, 0, 0, 0, 0, 0, 0, 0, 0, 0, 0, 0, 0, 0, 0, 0, 0, 0, 0, 0, 0, 0, 0, 0, 0, 0, 0, 0, 0, 0, 0, 0, 0, 0, 0], [0, 0, 0, 0, 0, 0, 0, 0, 0, 0, 0, 0, 0, 0, 0, 0, 0, 0, 0, 0, 0, 0, 0, 0, 0, 0, 0, 0, 0, 0, 0, 0, 0, 0, 0, 0, 0, 0, 0, 0], [45, 39, 41, 33, 50, 37, 34, 39, 40, 33, 46, 35, 47, 30, 31, 33, 30, 37, 43, 35, 46, 37, 35, 30, 37, 48, 49, 33, 35, 42, 34, 41, 35, 46, 39, 43, 46, 48, 37, 43]], [[0, 0, 0, 0, 0, 0, 0, 0, 0, 0, 0, 0, 0, 0, 0, 0, 0, 0, 0, 0, 0, 0, 0, 0, 0, 0, 0, 0, 0, 0, 0, 0, 0, 0, 0, 0, 0, 0, 0, 0], [0, 0, 0, 0, 0, 0, 0, 0, 0, 0, 0, 0, 0, 0, 0, 0, 0, 0, 0, 0, 0, 0, 0, 0, 0, 0, 0, 0, 0, 0, 0, 0, 0, 0, 0, 0, 0, 0, 0, 0], [0, 0, 0, 0, 0, 0, 0, 0, 0, 0, 0, 0, 0, 0, 0, 0, 0, 0, 0, 0, 0, 0, 0, 0, 0, 0, 0, 0, 0, 0, 0, 0, 0, 0, 0, 0, 0, 0, 0, 0], [0, 0, 0, 0, 0, 0, 0, 0, 0, 0, 0, 0, 0, 0, 0, 0, 0, 0, 0, 0, 0, 0, 0, 0, 0, 0, 0, 0, 0, 0, 0, 0, 0, 0, 0, 0, 0, 0, 0, 0], [0, 0, 0, 0, 0, 0, 0, 0, 0, 0, 0, 0, 0, 0, 0, 0, 0, 0, 0, 0, 0, 0, 0, 0, 0, 0, 0, 0, 0, 0, 0, 0, 0, 0, 0, 0, 0, 0, 0, 0], [0, 0, 0, 0, 0, 0, 0, 0, 0, 0, 0, 0, 0, 0, 0, 0, 0, 0, 0, 0, 0, 0, 0, 0, 0, 0, 0, 0, 0, 0, 0, 0, 0, 0, 0, 0, 0, 0, 0, 0], [0, 0, 0, 0, 0, 0, 0, 0, 0, 0, 0, 0, 0, 0, 0, 0, 0, 0, 0, 0, 0, 0, 0, 0, 0, 0, 0, 0, 0, 0, 0, 0, 0, 0, 0, 0, 0, 0, 0, 0], [0, 0, 0, 0, 0, 0, 0, 0, 0, 0, 0, 0, 0, 0, 0, 0, 0, 0, 0, 0, 0, 0, 0, 0, 0, 0, 0, 0, 0, 0, 0, 0, 0, 0, 0, 0, 0, 0, 0, 0]]];

q = [[[11, 113], [23, 114], [22, 120], [17, 108], [8, 123], [10, 124], [20, 114], [7, 118], [5, 123], [19, 106], [17, 117], [10, 105], [24, 119], [10, 115], [14, 123], [23, 120], [14, 121], [10, 105], [5, 118], [7, 113], [24, 123], [5, 120], [19, 105], [7, 107], [11, 120], [8, 125], [14, 118], [11, 120], [8, 118], [10, 105], [25, 115], [7, 118], [19, 109], [9, 118], [15, 120], [9, 117], [20, 105], [24, 108], [25, 120], [12, 117]], [[9, 120], [20, 115], [25, 125], [23, 105], [25, 116], [21, 105], [24, 117], [9, 113], [13, 124], [22, 118], [20, 115], [21, 113], [18, 111], [12, 110], [19, 116], [22, 108], [13, 106], [5, 116], [18, 121], [24, 125], [11, 112], [18, 105], [8, 124], [21, 125], [14, 116], [12, 113], [17, 118], [11, 112], [22, 120], [12, 124], [24, 118], [17, 124], [25, 120], [8, 105], [23, 109], [25, 110], [10, 119], [13, 113], [23, 108], [5, 112]], [[24, 114], [18, 113], [16, 109], [5, 125], [17, 110], [6, 114], [15, 114], [21, 114], [22, 119], [21, 124], [22, 124], [14, 119], [6, 110], [17, 118], [13, 123], [20, 114], [23, 121], [19, 120], [24, 110], [23, 109], [22, 112], [22, 115], [9, 121], [17, 114], [14, 108], [10, 114], [6, 120], [8, 107], [12, 115], [19, 111], [13, 121], [13, 110], [6, 122], [15, 105], [5, 114], [15, 119], [11, 115], [14, 121], [21, 110], [12, 105]], [[13, 118], [11, 118], [17, 114], [22, 105], [10, 109], [11, 125], [25, 118], [23, 108], [10, 123], [20, 123], [21, 122], [11, 122], [16, 108], [15, 121], [9, 110], [24, 120], [5, 116], [22, 109], [8, 120], [18, 113], [25, 113], [23, 119], [5, 114], [15, 113], [13, 107], [24, 113], [21, 112], [15, 125], [20, 118], [12, 106], [24, 122], [22, 112], [9, 125], [17, 125], [20, 107], [20, 112], [13, 105], [7, 123], [21, 107], [14, 115]], [[11, 113], [7, 112], [22, 108], [8, 110], [20, 110], [24, 109], [21, 121], [9, 105], [14, 113], [21, 123], [12, 124], [12, 105], [16, 115], [13, 120], [14, 106], [5, 107], [16, 120], [8, 117], [16, 105], [12, 122], [9, 121], [17, 120], [13, 117], [14, 123], [23, 119], [23, 112], [11, 107], [10, 124], [8, 107], [9, 105], [20, 118], [19, 112], [6, 111], [19, 112], [20, 107], [14, 124], [25, 107], [10, 115], [18, 110], [10, 110]], [[20, 109], [19, 106], [20, 116], [6, 120], [22, 124], [11, 119], [11, 121], [10, 125], [16, 123], [15, 114], [24, 108], [20, 115], [18, 124], [20, 120], [25, 112], [5, 112], [14, 122], [13, 116], [9, 106], [21, 114], [21, 121], [20, 119], [22, 109], [14, 118], [22, 112], [6, 124], [17, 105], [18, 108], [9, 110], [17, 119], [17, 124], [19, 105], [6, 108], [14, 109], [13, 108], [5, 116], [5, 118], [21, 109], [7, 116], [5, 114]], [[14, 120], [5, 110], [24, 116], [25, 120], [18, 110], [5, 118], [20, 116], [24, 113], [16, 118], [11, 107], [7, 111], [9, 120], [18, 109], [16, 116], [21, 113], [12, 108], [9, 109], [17, 117], [6, 125], [8, 123], [10, 118], [18, 118], [8, 119], [17, 105], [19, 114], [7, 110], [25, 106], [6, 117], [24, 123], [19, 112], [10, 106], [6, 118], [13, 123], [12, 105], [15, 113], [14, 111], [8, 108], [11, 111], [21, 111], [13, 122]], [[7, 106], [14, 120], [9, 109], [12, 119], [12, 108], [8, 125], [24, 124], [15, 117], [21, 115], [23, 105], [9, 115], [5, 107], [13, 118], [7, 118], [14, 118], [21, 123], [18, 118], [12, 122], [16, 117], [10, 114], [10, 117], [22, 118], [18, 122], [24, 124], [11, 106], [19, 122], [8, 119], [5, 124], [9, 123], [20, 108], [25, 121], [18, 119], [18, 113], [21, 121], [9, 116], [18, 110], [19, 107], [12, 121], [11, 122], [22, 123]]];
Q = [[55, 463], [68, 461], [61, 461], [65, 462], [57, 455], [59, 460], [56, 457], [58, 468]];
